; Copyright (c) 2026 The RIINA Authors. All rights reserved.
; Auto-generated from 02_FORMAL/coq/domains/LinearTypes.v (25 validations)
; Generated by scripts/generate-full-stack.py
;
; Translation Validation for LinearTypes
; Layer 9: Verifies compiler backend preserves formal semantics.
; Each assertion checks source IR ≡ target code for a proven property.

(set-logic QF_LIA)
(set-option :produce-models true)

; IR node representation
(declare-sort IRNode 0)
(declare-sort TargetNode 0)

; linearity_eqb: source semantics (matches Coq)
(declare-fun source_linearity_eqb () Bool)
(declare-fun target_linearity_eqb () Bool)
(assert (= source_linearity_eqb target_linearity_eqb))

; subqual: source semantics (matches Coq)
(declare-fun source_subqual () Bool)
(declare-fun target_subqual () Bool)
(assert (= source_subqual target_subqual))

; usage_add: source semantics (matches Coq)
(declare-fun source_usage_add () Bool)
(declare-fun target_usage_add () Bool)
(assert (= source_usage_add target_usage_add))

; usage_compatible: source semantics (matches Coq)
(declare-fun source_usage_compatible () Bool)
(declare-fun target_usage_compatible () Bool)
(assert (= source_usage_compatible target_usage_compatible))

; empty_ctx: source semantics (matches Coq)
(declare-fun source_empty_ctx () Bool)
(declare-fun target_empty_ctx () Bool)
(assert (= source_empty_ctx target_empty_ctx))

; extend: source semantics (matches Coq)
(declare-fun source_extend () Bool)
(declare-fun target_extend () Bool)
(assert (= source_extend target_extend))

; ctx_split: source semantics (matches Coq)
(declare-fun source_ctx_split () Bool)
(declare-fun target_ctx_split () Bool)
(assert (= source_ctx_split target_ctx_split))

; linear_var_exactly_once: source semantics (matches Coq)
(declare-fun source_linear_var_exactly_once () Bool)
(declare-fun target_linear_var_exactly_once () Bool)
(assert (= source_linear_var_exactly_once target_linear_var_exactly_once))

; unrestricted_usage_valid: source semantics (matches Coq)
(declare-fun source_unrestricted_usage_valid () Bool)
(declare-fun target_unrestricted_usage_valid () Bool)
(assert (= source_unrestricted_usage_valid target_unrestricted_usage_valid))

; app_consumes_arg: source semantics (matches Coq)
(declare-fun source_app_consumes_arg () Bool)
(declare-fun target_app_consumes_arg () Bool)
(assert (= source_app_consumes_arg target_app_consumes_arg))

; affine_subsumes_linear: source semantics (matches Coq)
(declare-fun source_affine_subsumes_linear () Bool)
(declare-fun target_affine_subsumes_linear () Bool)
(assert (= source_affine_subsumes_linear target_affine_subsumes_linear))

; relevant_subsumes_linear: source semantics (matches Coq)
(declare-fun source_relevant_subsumes_linear () Bool)
(declare-fun target_relevant_subsumes_linear () Bool)
(assert (= source_relevant_subsumes_linear target_relevant_subsumes_linear))

; ctx_split_valid: source semantics (matches Coq)
(declare-fun source_ctx_split_valid () Bool)
(declare-fun target_ctx_split_valid () Bool)
(assert (= source_ctx_split_valid target_ctx_split_valid))

; substitution_preserves_structure: source semantics (matches Coq)
(declare-fun source_substitution_preserves_structure () Bool)
(declare-fun target_substitution_preserves_structure () Bool)
(assert (= source_substitution_preserves_structure target_substitution_preserves_structure))

; weakening_invalid_for_linear: source semantics (matches Coq)
(declare-fun source_weakening_invalid_for_linear () Bool)
(declare-fun target_weakening_invalid_for_linear () Bool)
(assert (= source_weakening_invalid_for_linear target_weakening_invalid_for_linear))

; weakening_violates_linear_semantics: source semantics (matches Coq)
(declare-fun source_weakening_violates_linear_semantics () Bool)
(declare-fun target_weakening_violates_linear_semantics () Bool)
(assert (= source_weakening_violates_linear_semantics target_weakening_violates_linear_semantics))

; contraction_invalid_for_linear: source semantics (matches Coq)
(declare-fun source_contraction_invalid_for_linear () Bool)
(declare-fun target_contraction_invalid_for_linear () Bool)
(assert (= source_contraction_invalid_for_linear target_contraction_invalid_for_linear))

; pair_consumes_both: source semantics (matches Coq)
(declare-fun source_pair_consumes_both () Bool)
(declare-fun target_pair_consumes_both () Bool)
(assert (= source_pair_consumes_both target_pair_consumes_both))

; let_transfers_ownership: source semantics (matches Coq)
(declare-fun source_let_transfers_ownership () Bool)
(declare-fun target_let_transfers_ownership () Bool)
(assert (= source_let_transfers_ownership target_let_transfers_ownership))

; use_after_consume_impossible: source semantics (matches Coq)
(declare-fun source_use_after_consume_impossible () Bool)
(declare-fun target_use_after_consume_impossible () Bool)
(assert (= source_use_after_consume_impossible target_use_after_consume_impossible))

; no_double_consume: source semantics (matches Coq)
(declare-fun source_no_double_consume () Bool)
(declare-fun target_no_double_consume () Bool)
(assert (= source_no_double_consume target_no_double_consume))

; linearity_eqb_eq: translation preserves property (matches Coq: Lemma)
(declare-fun source_linearity_eqb_eq () Bool)
(declare-fun target_linearity_eqb_eq () Bool)
(assert (= source_linearity_eqb_eq target_linearity_eqb_eq))

; get_update_same: translation preserves property (matches Coq: Lemma)
(declare-fun source_get_update_same () Bool)
(declare-fun target_get_update_same () Bool)
(assert (= source_get_update_same target_get_update_same))

; TYPE_002_01: translation preserves property (matches Coq: Theorem)
(declare-fun source_TYPE_002_01 () Bool)
(declare-fun target_TYPE_002_01 () Bool)
(assert (= source_TYPE_002_01 target_TYPE_002_01))

; TYPE_002_02: translation preserves property (matches Coq: Theorem)
(declare-fun source_TYPE_002_02 () Bool)
(declare-fun target_TYPE_002_02 () Bool)
(assert (= source_TYPE_002_02 target_TYPE_002_02))

; TYPE_002_03: translation preserves property (matches Coq: Theorem)
(declare-fun source_TYPE_002_03 () Bool)
(declare-fun target_TYPE_002_03 () Bool)
(assert (= source_TYPE_002_03 target_TYPE_002_03))

; TYPE_002_04: translation preserves property (matches Coq: Theorem)
(declare-fun source_TYPE_002_04 () Bool)
(declare-fun target_TYPE_002_04 () Bool)
(assert (= source_TYPE_002_04 target_TYPE_002_04))

; TYPE_002_05: translation preserves property (matches Coq: Theorem)
(declare-fun source_TYPE_002_05 () Bool)
(declare-fun target_TYPE_002_05 () Bool)
(assert (= source_TYPE_002_05 target_TYPE_002_05))

; usage_add_zero_l: translation preserves property (matches Coq: Lemma)
(declare-fun source_usage_add_zero_l () Bool)
(declare-fun target_usage_add_zero_l () Bool)
(assert (= source_usage_add_zero_l target_usage_add_zero_l))

; usage_add_zero_r: translation preserves property (matches Coq: Lemma)
(declare-fun source_usage_add_zero_r () Bool)
(declare-fun target_usage_add_zero_r () Bool)
(assert (= source_usage_add_zero_r target_usage_add_zero_r))

; TYPE_002_06: translation preserves property (matches Coq: Theorem)
(declare-fun source_TYPE_002_06 () Bool)
(declare-fun target_TYPE_002_06 () Bool)
(assert (= source_TYPE_002_06 target_TYPE_002_06))

; TYPE_002_07: translation preserves property (matches Coq: Theorem)
(declare-fun source_TYPE_002_07 () Bool)
(declare-fun target_TYPE_002_07 () Bool)
(assert (= source_TYPE_002_07 target_TYPE_002_07))

; linear_must_be_used: translation preserves property (matches Coq: Lemma)
(declare-fun source_linear_must_be_used () Bool)
(declare-fun target_linear_must_be_used () Bool)
(assert (= source_linear_must_be_used target_linear_must_be_used))

; linear_zero_usage_invalid: translation preserves property (matches Coq: Lemma)
(declare-fun source_linear_zero_usage_invalid () Bool)
(declare-fun target_linear_zero_usage_invalid () Bool)
(assert (= source_linear_zero_usage_invalid target_linear_zero_usage_invalid))

; linear_many_usage_invalid: translation preserves property (matches Coq: Lemma)
(declare-fun source_linear_many_usage_invalid () Bool)
(declare-fun target_linear_many_usage_invalid () Bool)
(assert (= source_linear_many_usage_invalid target_linear_many_usage_invalid))

; unused_linear_ill_formed: translation preserves property (matches Coq: Lemma)
(declare-fun source_unused_linear_ill_formed () Bool)
(declare-fun target_unused_linear_ill_formed () Bool)
(assert (= source_unused_linear_ill_formed target_unused_linear_ill_formed))

; extend_preserves_lookup_none: translation preserves property (matches Coq: Lemma)
(declare-fun source_extend_preserves_lookup_none () Bool)
(declare-fun target_extend_preserves_lookup_none () Bool)
(assert (= source_extend_preserves_lookup_none target_extend_preserves_lookup_none))

; unit_typing_preserves_ctx: translation preserves property (matches Coq: Lemma)
(declare-fun source_unit_typing_preserves_ctx () Bool)
(declare-fun target_unit_typing_preserves_ctx () Bool)
(assert (= source_unit_typing_preserves_ctx target_unit_typing_preserves_ctx))

; TYPE_002_08_direct: translation preserves property (matches Coq: Theorem)
(declare-fun source_TYPE_002_08_direct () Bool)
(declare-fun target_TYPE_002_08_direct () Bool)
(assert (= source_TYPE_002_08_direct target_TYPE_002_08_direct))

; weakening_consequence: translation preserves property (matches Coq: Lemma)
(declare-fun source_weakening_consequence () Bool)
(declare-fun target_weakening_consequence () Bool)
(assert (= source_weakening_consequence target_weakening_consequence))

; TYPE_002_08: translation preserves property (matches Coq: Theorem)
(declare-fun source_TYPE_002_08 () Bool)
(declare-fun target_TYPE_002_08 () Bool)
(assert (= source_TYPE_002_08 target_TYPE_002_08))

; TYPE_002_09: translation preserves property (matches Coq: Theorem)
(declare-fun source_TYPE_002_09 () Bool)
(declare-fun target_TYPE_002_09 () Bool)
(assert (= source_TYPE_002_09 target_TYPE_002_09))

; TYPE_002_10: translation preserves property (matches Coq: Theorem)
(declare-fun source_TYPE_002_10 () Bool)
(declare-fun target_TYPE_002_10 () Bool)
(assert (= source_TYPE_002_10 target_TYPE_002_10))

; TYPE_002_11: translation preserves property (matches Coq: Theorem)
(declare-fun source_TYPE_002_11 () Bool)
(declare-fun target_TYPE_002_11 () Bool)
(assert (= source_TYPE_002_11 target_TYPE_002_11))

; resource_stays_consumed: translation preserves property (matches Coq: Lemma)
(declare-fun source_resource_stays_consumed () Bool)
(declare-fun target_resource_stays_consumed () Bool)
(assert (= source_resource_stays_consumed target_resource_stays_consumed))

; TYPE_002_12: translation preserves property (matches Coq: Theorem)
(declare-fun source_TYPE_002_12 () Bool)
(declare-fun target_TYPE_002_12 () Bool)
(assert (= source_TYPE_002_12 target_TYPE_002_12))

; Verify all translation validations are satisfiable
(check-sat)
(exit)
